language ESSENCE' 1.0
$ loaded file: carseqdata/csplib-instance-75
letting numcars=200
letting numclasses=28
letting numoptions=5
letting optMax=[1, 2, 1, 2, 1]
letting windowSize=[2, 3, 3, 5, 5]
letting numberPerClass=[3, 8, 3, 1, 2, 5, 5, 1, 1, 29, 20, 1, 1, 2, 14, 4, 9, 11, 3, 5, 9, 17, 1, 1, 13, 2, 7, 22]
letting optionsRequired=[[0, 0, 1, 1, 0], [1, 0, 0, 1, 0], [1, 0, 0, 0, 1], [1, 0, 1, 1, 1], [1, 1, 1, 0, 1], [1, 1, 1, 1, 0], [1, 0, 1, 1, 0], [1, 0, 0, 1, 1], [0, 1, 0, 1, 1], [0, 1, 0, 0, 0], [0, 0, 0, 1, 0], [1, 1, 0, 1, 1], [0, 0, 0, 0, 1], [0, 0, 1, 0, 1], [0, 1, 1, 0, 0], [1, 0, 1, 0, 0], [0, 1, 0, 0, 1], [0, 0, 1, 0, 0], [0, 1, 1, 1, 0], [1, 1, 1, 0, 0], [1, 1, 0, 0, 1], [1, 0, 0, 0, 0], [1, 1, 1, 1, 1], [1, 0, 1, 0, 0], [0, 1, 0, 0, 0], [0, 1, 0, 0, 0], [0, 0, 0, 0, 0], [0, 0, 0, 0, 0]]
